
ACE v2.1 

  instance
    name:PyCSP

  Loading variables...

  Loading constraints...

  domains
    types:1  values:672  sizes:[4:168]
  variables
    count:168  arrays:1  degrees:[138:4,139:60,140:104]
  constraints
    count:5708  specific:38  groups:2  arities:[4:5670,12:27,28:6,56:5]
    distribution:[Cardinality:6,ConstraintIntension:5670,LexicographicLE:32]
    intStructures:(1,shared:5669)
    wck:2.28  cpu:2.921  mem:86M435

  Building solver... 

  solver
    guaranteedAC:true
    wck:2.37  cpu:3.0  mem:94M824

  preprocessing
    revisions:(22680,useless=22680)  values:672  unsat:false
    wck:0.063  cpu:3.046  mem:94M824

    run0  dpts:0..23  effs:398  fails:4  wrgs:28  wck:0.00

  global
    effs:398  revisions:(169470,useless=169420)
    stop:FULL_EXPLORATION  wrgs:28
    wck:2.60  cpu:3.14  mem:95M350

s UNSATISFIABLE

d WRONG DECISIONS 28
d FOUND SOLUTIONS 0
d COMPLETE EXPLORATION

c real time : 3.14
